p wcnf 280 720
w -2 0.367879 0
w 2 2.718282 0
w -3 0.367879 0
w 3 2.718282 0
w -5 0.367879 0
w 5 2.718282 0
w -6 0.367879 0
w 6 2.718282 0
w -8 0.367879 0
w 8 2.718282 0
w -9 0.367879 0
w 9 2.718282 0
w -11 0.367879 0
w 11 2.718282 0
w -12 0.367879 0
w 12 2.718282 0
w -14 0.367879 0
w 14 2.718282 0
w -15 0.367879 0
w 15 2.718282 0
w -17 0.367879 0
w 17 2.718282 0
w -18 0.367879 0
w 18 2.718282 0
w -20 0.367879 0
w 20 2.718282 0
w -21 0.367879 0
w 21 2.718282 0
w -23 0.367879 0
w 23 2.718282 0
w -24 0.367879 0
w 24 2.718282 0
w -26 0.367879 0
w 26 2.718282 0
w -27 0.367879 0
w 27 2.718282 0
w -29 0.367879 0
w 29 2.718282 0
w -31 0.367879 0
w 31 2.718282 0
w -32 0.367879 0
w 32 2.718282 0
w -34 0.367879 0
w 34 2.718282 0
w -35 0.367879 0
w 35 2.718282 0
w -37 0.367879 0
w 37 2.718282 0
w -38 0.367879 0
w 38 2.718282 0
w -40 0.367879 0
w 40 2.718282 0
w -41 0.367879 0
w 41 2.718282 0
w -43 0.367879 0
w 43 2.718282 0
w -44 0.367879 0
w 44 2.718282 0
w -46 0.367879 0
w 46 2.718282 0
w -47 0.367879 0
w 47 2.718282 0
w -49 0.367879 0
w 49 2.718282 0
w -50 0.367879 0
w 50 2.718282 0
w -52 0.367879 0
w 52 2.718282 0
w -53 0.367879 0
w 53 2.718282 0
w -55 0.367879 0
w 55 2.718282 0
w -56 0.367879 0
w 56 2.718282 0
w -58 0.367879 0
w 58 2.718282 0
w -60 0.367879 0
w 60 2.718282 0
w -61 0.367879 0
w 61 2.718282 0
w -63 0.367879 0
w 63 2.718282 0
w -64 0.367879 0
w 64 2.718282 0
w -66 0.367879 0
w 66 2.718282 0
w -67 0.367879 0
w 67 2.718282 0
w -69 0.367879 0
w 69 2.718282 0
w -70 0.367879 0
w 70 2.718282 0
w -72 0.367879 0
w 72 2.718282 0
w -73 0.367879 0
w 73 2.718282 0
w -75 0.367879 0
w 75 2.718282 0
w -76 0.367879 0
w 76 2.718282 0
w -78 0.367879 0
w 78 2.718282 0
w -79 0.367879 0
w 79 2.718282 0
w -81 0.367879 0
w 81 2.718282 0
w -82 0.367879 0
w 82 2.718282 0
w -84 0.367879 0
w 84 2.718282 0
w -85 0.367879 0
w 85 2.718282 0
w -87 0.367879 0
w 87 2.718282 0
w -89 0.367879 0
w 89 2.718282 0
w -90 0.367879 0
w 90 2.718282 0
w -92 0.367879 0
w 92 2.718282 0
w -93 0.367879 0
w 93 2.718282 0
w -95 0.367879 0
w 95 2.718282 0
w -96 0.367879 0
w 96 2.718282 0
w -98 0.367879 0
w 98 2.718282 0
w -99 0.367879 0
w 99 2.718282 0
w -101 0.367879 0
w 101 2.718282 0
w -102 0.367879 0
w 102 2.718282 0
w -104 0.367879 0
w 104 2.718282 0
w -105 0.367879 0
w 105 2.718282 0
w -107 0.367879 0
w 107 2.718282 0
w -108 0.367879 0
w 108 2.718282 0
w -110 0.367879 0
w 110 2.718282 0
w -111 0.367879 0
w 111 2.718282 0
w -113 0.367879 0
w 113 2.718282 0
w -114 0.367879 0
w 114 2.718282 0
w -116 0.367879 0
w 116 2.718282 0
w -118 0.367879 0
w 118 2.718282 0
w -119 0.367879 0
w 119 2.718282 0
w -121 0.367879 0
w 121 2.718282 0
w -122 0.367879 0
w 122 2.718282 0
w -124 0.367879 0
w 124 2.718282 0
w -125 0.367879 0
w 125 2.718282 0
w -127 0.367879 0
w 127 2.718282 0
w -128 0.367879 0
w 128 2.718282 0
w -130 0.367879 0
w 130 2.718282 0
w -131 0.367879 0
w 131 2.718282 0
w -133 0.367879 0
w 133 2.718282 0
w -134 0.367879 0
w 134 2.718282 0
w -136 0.367879 0
w 136 2.718282 0
w -137 0.367879 0
w 137 2.718282 0
w -139 0.367879 0
w 139 2.718282 0
w -140 0.367879 0
w 140 2.718282 0
w -142 0.367879 0
w 142 2.718282 0
w -143 0.367879 0
w 143 2.718282 0
w -145 0.367879 0
w 145 2.718282 0
w -147 0.367879 0
w 147 2.718282 0
w -148 0.367879 0
w 148 2.718282 0
w -150 0.367879 0
w 150 2.718282 0
w -151 0.367879 0
w 151 2.718282 0
w -153 0.367879 0
w 153 2.718282 0
w -154 0.367879 0
w 154 2.718282 0
w -156 0.367879 0
w 156 2.718282 0
w -157 0.367879 0
w 157 2.718282 0
w -159 0.367879 0
w 159 2.718282 0
w -160 0.367879 0
w 160 2.718282 0
w -162 0.367879 0
w 162 2.718282 0
w -163 0.367879 0
w 163 2.718282 0
w -165 0.367879 0
w 165 2.718282 0
w -166 0.367879 0
w 166 2.718282 0
w -168 0.367879 0
w 168 2.718282 0
w -169 0.367879 0
w 169 2.718282 0
w -171 0.367879 0
w 171 2.718282 0
w -172 0.367879 0
w 172 2.718282 0
w -174 0.367879 0
w 174 2.718282 0
w -176 0.367879 0
w 176 2.718282 0
w -177 0.367879 0
w 177 2.718282 0
w -179 0.367879 0
w 179 2.718282 0
w -180 0.367879 0
w 180 2.718282 0
w -182 0.367879 0
w 182 2.718282 0
w -183 0.367879 0
w 183 2.718282 0
w -185 0.367879 0
w 185 2.718282 0
w -186 0.367879 0
w 186 2.718282 0
w -188 0.367879 0
w 188 2.718282 0
w -189 0.367879 0
w 189 2.718282 0
w -191 0.367879 0
w 191 2.718282 0
w -192 0.367879 0
w 192 2.718282 0
w -194 0.367879 0
w 194 2.718282 0
w -195 0.367879 0
w 195 2.718282 0
w -197 0.367879 0
w 197 2.718282 0
w -198 0.367879 0
w 198 2.718282 0
w -200 0.367879 0
w 200 2.718282 0
w -201 0.367879 0
w 201 2.718282 0
w -203 0.367879 0
w 203 2.718282 0
w -205 0.367879 0
w 205 2.718282 0
w -206 0.367879 0
w 206 2.718282 0
w -208 0.367879 0
w 208 2.718282 0
w -209 0.367879 0
w 209 2.718282 0
w -211 0.367879 0
w 211 2.718282 0
w -212 0.367879 0
w 212 2.718282 0
w -214 0.367879 0
w 214 2.718282 0
w -215 0.367879 0
w 215 2.718282 0
w -217 0.367879 0
w 217 2.718282 0
w -218 0.367879 0
w 218 2.718282 0
w -220 0.367879 0
w 220 2.718282 0
w -221 0.367879 0
w 221 2.718282 0
w -223 0.367879 0
w 223 2.718282 0
w -224 0.367879 0
w 224 2.718282 0
w -226 0.367879 0
w 226 2.718282 0
w -227 0.367879 0
w 227 2.718282 0
w -229 0.367879 0
w 229 2.718282 0
w -230 0.367879 0
w 230 2.718282 0
w -232 0.367879 0
w 232 2.718282 0
w -234 0.367879 0
w 234 2.718282 0
w -235 0.367879 0
w 235 2.718282 0
w -237 0.367879 0
w 237 2.718282 0
w -238 0.367879 0
w 238 2.718282 0
w -240 0.367879 0
w 240 2.718282 0
w -241 0.367879 0
w 241 2.718282 0
w -243 0.367879 0
w 243 2.718282 0
w -244 0.367879 0
w 244 2.718282 0
w -246 0.367879 0
w 246 2.718282 0
w -247 0.367879 0
w 247 2.718282 0
w -249 0.367879 0
w 249 2.718282 0
w -250 0.367879 0
w 250 2.718282 0
w -252 0.367879 0
w 252 2.718282 0
w -253 0.367879 0
w 253 2.718282 0
w -255 0.367879 0
w 255 2.718282 0
w -256 0.367879 0
w 256 2.718282 0
w -258 0.367879 0
w 258 2.718282 0
w -259 0.367879 0
w 259 2.718282 0
w -261 0.367879 0
w 261 2.718282 0
w -263 0.367879 0
w 263 2.718282 0
w -265 0.367879 0
w 265 2.718282 0
w -267 0.367879 0
w 267 2.718282 0
w -269 0.367879 0
w 269 2.718282 0
w -271 0.367879 0
w 271 2.718282 0
w -273 0.367879 0
w 273 2.718282 0
w -275 0.367879 0
w 275 2.718282 0
w -277 0.367879 0
w 277 2.718282 0
w -279 0.367879 0
w 279 2.718282 0
2 1 4 0
2 -1 -4 0
-2 1 -4 0
-2 -1 4 0
3 1 30 0
3 -1 -30 0
-3 1 -30 0
-3 -1 30 0
5 4 7 0
5 -4 -7 0
-5 4 -7 0
-5 -4 7 0
6 4 33 0
6 -4 -33 0
-6 4 -33 0
-6 -4 33 0
8 7 10 0
8 -7 -10 0
-8 7 -10 0
-8 -7 10 0
9 7 36 0
9 -7 -36 0
-9 7 -36 0
-9 -7 36 0
11 10 13 0
11 -10 -13 0
-11 10 -13 0
-11 -10 13 0
12 10 39 0
12 -10 -39 0
-12 10 -39 0
-12 -10 39 0
14 13 16 0
14 -13 -16 0
-14 13 -16 0
-14 -13 16 0
15 13 42 0
15 -13 -42 0
-15 13 -42 0
-15 -13 42 0
17 16 19 0
17 -16 -19 0
-17 16 -19 0
-17 -16 19 0
18 16 45 0
18 -16 -45 0
-18 16 -45 0
-18 -16 45 0
20 19 22 0
20 -19 -22 0
-20 19 -22 0
-20 -19 22 0
21 19 48 0
21 -19 -48 0
-21 19 -48 0
-21 -19 48 0
23 22 25 0
23 -22 -25 0
-23 22 -25 0
-23 -22 25 0
24 22 51 0
24 -22 -51 0
-24 22 -51 0
-24 -22 51 0
26 25 28 0
26 -25 -28 0
-26 25 -28 0
-26 -25 28 0
27 25 54 0
27 -25 -54 0
-27 25 -54 0
-27 -25 54 0
29 28 57 0
29 -28 -57 0
-29 28 -57 0
-29 -28 57 0
31 30 33 0
31 -30 -33 0
-31 30 -33 0
-31 -30 33 0
32 30 59 0
32 -30 -59 0
-32 30 -59 0
-32 -30 59 0
34 33 36 0
34 -33 -36 0
-34 33 -36 0
-34 -33 36 0
35 33 62 0
35 -33 -62 0
-35 33 -62 0
-35 -33 62 0
37 36 39 0
37 -36 -39 0
-37 36 -39 0
-37 -36 39 0
38 36 65 0
38 -36 -65 0
-38 36 -65 0
-38 -36 65 0
40 39 42 0
40 -39 -42 0
-40 39 -42 0
-40 -39 42 0
41 39 68 0
41 -39 -68 0
-41 39 -68 0
-41 -39 68 0
43 42 45 0
43 -42 -45 0
-43 42 -45 0
-43 -42 45 0
44 42 71 0
44 -42 -71 0
-44 42 -71 0
-44 -42 71 0
46 45 48 0
46 -45 -48 0
-46 45 -48 0
-46 -45 48 0
47 45 74 0
47 -45 -74 0
-47 45 -74 0
-47 -45 74 0
49 48 51 0
49 -48 -51 0
-49 48 -51 0
-49 -48 51 0
50 48 77 0
50 -48 -77 0
-50 48 -77 0
-50 -48 77 0
52 51 54 0
52 -51 -54 0
-52 51 -54 0
-52 -51 54 0
53 51 80 0
53 -51 -80 0
-53 51 -80 0
-53 -51 80 0
55 54 57 0
55 -54 -57 0
-55 54 -57 0
-55 -54 57 0
56 54 83 0
56 -54 -83 0
-56 54 -83 0
-56 -54 83 0
58 57 86 0
58 -57 -86 0
-58 57 -86 0
-58 -57 86 0
60 59 62 0
60 -59 -62 0
-60 59 -62 0
-60 -59 62 0
61 59 88 0
61 -59 -88 0
-61 59 -88 0
-61 -59 88 0
63 62 65 0
63 -62 -65 0
-63 62 -65 0
-63 -62 65 0
64 62 91 0
64 -62 -91 0
-64 62 -91 0
-64 -62 91 0
66 65 68 0
66 -65 -68 0
-66 65 -68 0
-66 -65 68 0
67 65 94 0
67 -65 -94 0
-67 65 -94 0
-67 -65 94 0
69 68 71 0
69 -68 -71 0
-69 68 -71 0
-69 -68 71 0
70 68 97 0
70 -68 -97 0
-70 68 -97 0
-70 -68 97 0
72 71 74 0
72 -71 -74 0
-72 71 -74 0
-72 -71 74 0
73 71 100 0
73 -71 -100 0
-73 71 -100 0
-73 -71 100 0
75 74 77 0
75 -74 -77 0
-75 74 -77 0
-75 -74 77 0
76 74 103 0
76 -74 -103 0
-76 74 -103 0
-76 -74 103 0
78 77 80 0
78 -77 -80 0
-78 77 -80 0
-78 -77 80 0
79 77 106 0
79 -77 -106 0
-79 77 -106 0
-79 -77 106 0
81 80 83 0
81 -80 -83 0
-81 80 -83 0
-81 -80 83 0
82 80 109 0
82 -80 -109 0
-82 80 -109 0
-82 -80 109 0
84 83 86 0
84 -83 -86 0
-84 83 -86 0
-84 -83 86 0
85 83 112 0
85 -83 -112 0
-85 83 -112 0
-85 -83 112 0
87 86 115 0
87 -86 -115 0
-87 86 -115 0
-87 -86 115 0
89 88 91 0
89 -88 -91 0
-89 88 -91 0
-89 -88 91 0
90 88 117 0
90 -88 -117 0
-90 88 -117 0
-90 -88 117 0
92 91 94 0
92 -91 -94 0
-92 91 -94 0
-92 -91 94 0
93 91 120 0
93 -91 -120 0
-93 91 -120 0
-93 -91 120 0
95 94 97 0
95 -94 -97 0
-95 94 -97 0
-95 -94 97 0
96 94 123 0
96 -94 -123 0
-96 94 -123 0
-96 -94 123 0
98 97 100 0
98 -97 -100 0
-98 97 -100 0
-98 -97 100 0
99 97 126 0
99 -97 -126 0
-99 97 -126 0
-99 -97 126 0
101 100 103 0
101 -100 -103 0
-101 100 -103 0
-101 -100 103 0
102 100 129 0
102 -100 -129 0
-102 100 -129 0
-102 -100 129 0
104 103 106 0
104 -103 -106 0
-104 103 -106 0
-104 -103 106 0
105 103 132 0
105 -103 -132 0
-105 103 -132 0
-105 -103 132 0
107 106 109 0
107 -106 -109 0
-107 106 -109 0
-107 -106 109 0
108 106 135 0
108 -106 -135 0
-108 106 -135 0
-108 -106 135 0
110 109 112 0
110 -109 -112 0
-110 109 -112 0
-110 -109 112 0
111 109 138 0
111 -109 -138 0
-111 109 -138 0
-111 -109 138 0
113 112 115 0
113 -112 -115 0
-113 112 -115 0
-113 -112 115 0
114 112 141 0
114 -112 -141 0
-114 112 -141 0
-114 -112 141 0
116 115 144 0
116 -115 -144 0
-116 115 -144 0
-116 -115 144 0
118 117 120 0
118 -117 -120 0
-118 117 -120 0
-118 -117 120 0
119 117 146 0
119 -117 -146 0
-119 117 -146 0
-119 -117 146 0
121 120 123 0
121 -120 -123 0
-121 120 -123 0
-121 -120 123 0
122 120 149 0
122 -120 -149 0
-122 120 -149 0
-122 -120 149 0
124 123 126 0
124 -123 -126 0
-124 123 -126 0
-124 -123 126 0
125 123 152 0
125 -123 -152 0
-125 123 -152 0
-125 -123 152 0
127 126 129 0
127 -126 -129 0
-127 126 -129 0
-127 -126 129 0
128 126 155 0
128 -126 -155 0
-128 126 -155 0
-128 -126 155 0
130 129 132 0
130 -129 -132 0
-130 129 -132 0
-130 -129 132 0
131 129 158 0
131 -129 -158 0
-131 129 -158 0
-131 -129 158 0
133 132 135 0
133 -132 -135 0
-133 132 -135 0
-133 -132 135 0
134 132 161 0
134 -132 -161 0
-134 132 -161 0
-134 -132 161 0
136 135 138 0
136 -135 -138 0
-136 135 -138 0
-136 -135 138 0
137 135 164 0
137 -135 -164 0
-137 135 -164 0
-137 -135 164 0
139 138 141 0
139 -138 -141 0
-139 138 -141 0
-139 -138 141 0
140 138 167 0
140 -138 -167 0
-140 138 -167 0
-140 -138 167 0
142 141 144 0
142 -141 -144 0
-142 141 -144 0
-142 -141 144 0
143 141 170 0
143 -141 -170 0
-143 141 -170 0
-143 -141 170 0
145 144 173 0
145 -144 -173 0
-145 144 -173 0
-145 -144 173 0
147 146 149 0
147 -146 -149 0
-147 146 -149 0
-147 -146 149 0
148 146 175 0
148 -146 -175 0
-148 146 -175 0
-148 -146 175 0
150 149 152 0
150 -149 -152 0
-150 149 -152 0
-150 -149 152 0
151 149 178 0
151 -149 -178 0
-151 149 -178 0
-151 -149 178 0
153 152 155 0
153 -152 -155 0
-153 152 -155 0
-153 -152 155 0
154 152 181 0
154 -152 -181 0
-154 152 -181 0
-154 -152 181 0
156 155 158 0
156 -155 -158 0
-156 155 -158 0
-156 -155 158 0
157 155 184 0
157 -155 -184 0
-157 155 -184 0
-157 -155 184 0
159 158 161 0
159 -158 -161 0
-159 158 -161 0
-159 -158 161 0
160 158 187 0
160 -158 -187 0
-160 158 -187 0
-160 -158 187 0
162 161 164 0
162 -161 -164 0
-162 161 -164 0
-162 -161 164 0
163 161 190 0
163 -161 -190 0
-163 161 -190 0
-163 -161 190 0
165 164 167 0
165 -164 -167 0
-165 164 -167 0
-165 -164 167 0
166 164 193 0
166 -164 -193 0
-166 164 -193 0
-166 -164 193 0
168 167 170 0
168 -167 -170 0
-168 167 -170 0
-168 -167 170 0
169 167 196 0
169 -167 -196 0
-169 167 -196 0
-169 -167 196 0
171 170 173 0
171 -170 -173 0
-171 170 -173 0
-171 -170 173 0
172 170 199 0
172 -170 -199 0
-172 170 -199 0
-172 -170 199 0
174 173 202 0
174 -173 -202 0
-174 173 -202 0
-174 -173 202 0
176 175 178 0
176 -175 -178 0
-176 175 -178 0
-176 -175 178 0
177 175 204 0
177 -175 -204 0
-177 175 -204 0
-177 -175 204 0
179 178 181 0
179 -178 -181 0
-179 178 -181 0
-179 -178 181 0
180 178 207 0
180 -178 -207 0
-180 178 -207 0
-180 -178 207 0
182 181 184 0
182 -181 -184 0
-182 181 -184 0
-182 -181 184 0
183 181 210 0
183 -181 -210 0
-183 181 -210 0
-183 -181 210 0
185 184 187 0
185 -184 -187 0
-185 184 -187 0
-185 -184 187 0
186 184 213 0
186 -184 -213 0
-186 184 -213 0
-186 -184 213 0
188 187 190 0
188 -187 -190 0
-188 187 -190 0
-188 -187 190 0
189 187 216 0
189 -187 -216 0
-189 187 -216 0
-189 -187 216 0
191 190 193 0
191 -190 -193 0
-191 190 -193 0
-191 -190 193 0
192 190 219 0
192 -190 -219 0
-192 190 -219 0
-192 -190 219 0
194 193 196 0
194 -193 -196 0
-194 193 -196 0
-194 -193 196 0
195 193 222 0
195 -193 -222 0
-195 193 -222 0
-195 -193 222 0
197 196 199 0
197 -196 -199 0
-197 196 -199 0
-197 -196 199 0
198 196 225 0
198 -196 -225 0
-198 196 -225 0
-198 -196 225 0
200 199 202 0
200 -199 -202 0
-200 199 -202 0
-200 -199 202 0
201 199 228 0
201 -199 -228 0
-201 199 -228 0
-201 -199 228 0
203 202 231 0
203 -202 -231 0
-203 202 -231 0
-203 -202 231 0
205 204 207 0
205 -204 -207 0
-205 204 -207 0
-205 -204 207 0
206 204 233 0
206 -204 -233 0
-206 204 -233 0
-206 -204 233 0
208 207 210 0
208 -207 -210 0
-208 207 -210 0
-208 -207 210 0
209 207 236 0
209 -207 -236 0
-209 207 -236 0
-209 -207 236 0
211 210 213 0
211 -210 -213 0
-211 210 -213 0
-211 -210 213 0
212 210 239 0
212 -210 -239 0
-212 210 -239 0
-212 -210 239 0
214 213 216 0
214 -213 -216 0
-214 213 -216 0
-214 -213 216 0
215 213 242 0
215 -213 -242 0
-215 213 -242 0
-215 -213 242 0
217 216 219 0
217 -216 -219 0
-217 216 -219 0
-217 -216 219 0
218 216 245 0
218 -216 -245 0
-218 216 -245 0
-218 -216 245 0
220 219 222 0
220 -219 -222 0
-220 219 -222 0
-220 -219 222 0
221 219 248 0
221 -219 -248 0
-221 219 -248 0
-221 -219 248 0
223 222 225 0
223 -222 -225 0
-223 222 -225 0
-223 -222 225 0
224 222 251 0
224 -222 -251 0
-224 222 -251 0
-224 -222 251 0
226 225 228 0
226 -225 -228 0
-226 225 -228 0
-226 -225 228 0
227 225 254 0
227 -225 -254 0
-227 225 -254 0
-227 -225 254 0
229 228 231 0
229 -228 -231 0
-229 228 -231 0
-229 -228 231 0
230 228 257 0
230 -228 -257 0
-230 228 -257 0
-230 -228 257 0
232 231 260 0
232 -231 -260 0
-232 231 -260 0
-232 -231 260 0
234 233 236 0
234 -233 -236 0
-234 233 -236 0
-234 -233 236 0
235 233 262 0
235 -233 -262 0
-235 233 -262 0
-235 -233 262 0
237 236 239 0
237 -236 -239 0
-237 236 -239 0
-237 -236 239 0
238 236 264 0
238 -236 -264 0
-238 236 -264 0
-238 -236 264 0
240 239 242 0
240 -239 -242 0
-240 239 -242 0
-240 -239 242 0
241 239 266 0
241 -239 -266 0
-241 239 -266 0
-241 -239 266 0
243 242 245 0
243 -242 -245 0
-243 242 -245 0
-243 -242 245 0
244 242 268 0
244 -242 -268 0
-244 242 -268 0
-244 -242 268 0
246 245 248 0
246 -245 -248 0
-246 245 -248 0
-246 -245 248 0
247 245 270 0
247 -245 -270 0
-247 245 -270 0
-247 -245 270 0
249 248 251 0
249 -248 -251 0
-249 248 -251 0
-249 -248 251 0
250 248 272 0
250 -248 -272 0
-250 248 -272 0
-250 -248 272 0
252 251 254 0
252 -251 -254 0
-252 251 -254 0
-252 -251 254 0
253 251 274 0
253 -251 -274 0
-253 251 -274 0
-253 -251 274 0
255 254 257 0
255 -254 -257 0
-255 254 -257 0
-255 -254 257 0
256 254 276 0
256 -254 -276 0
-256 254 -276 0
-256 -254 276 0
258 257 260 0
258 -257 -260 0
-258 257 -260 0
-258 -257 260 0
259 257 278 0
259 -257 -278 0
-259 257 -278 0
-259 -257 278 0
261 260 280 0
261 -260 -280 0
-261 260 -280 0
-261 -260 280 0
263 262 264 0
263 -262 -264 0
-263 262 -264 0
-263 -262 264 0
265 264 266 0
265 -264 -266 0
-265 264 -266 0
-265 -264 266 0
267 266 268 0
267 -266 -268 0
-267 266 -268 0
-267 -266 268 0
269 268 270 0
269 -268 -270 0
-269 268 -270 0
-269 -268 270 0
271 270 272 0
271 -270 -272 0
-271 270 -272 0
-271 -270 272 0
273 272 274 0
273 -272 -274 0
-273 272 -274 0
-273 -272 274 0
275 274 276 0
275 -274 -276 0
-275 274 -276 0
-275 -274 276 0
277 276 278 0
277 -276 -278 0
-277 276 -278 0
-277 -276 278 0
279 278 280 0
279 -278 -280 0
-279 278 -280 0
-279 -278 280 0
